c colouring generated by benchmark framework
p edge 74 301
v 1 4
v 2 1
v 3 7
v 4 3
v 5 8
v 6 5
v 7 4
v 8 5
v 9 1
v 10 5
v 11 7
v 12 4
v 13 2
v 14 4
v 15 2
v 16 8
v 17 9
v 18 0
v 19 4
v 20 1
v 21 0
v 22 8
v 23 8
v 24 1
v 25 5
v 26 0
v 27 1
v 28 3
v 29 3
v 30 0
v 31 8
v 32 4
v 33 6
v 34 3
v 35 0
v 36 1
v 37 6
v 38 3
v 39 4
v 40 9
v 41 5
v 42 7
v 43 9
v 44 2
v 45 6
v 46 8
v 47 1
v 48 10
v 49 0
v 50 10
v 51 2
v 52 9
v 53 3
v 54 3
v 55 6
v 56 9
v 57 0
v 58 2
v 59 1
v 60 2
v 61 1
v 62 2
v 63 1
v 64 2
v 65 4
v 66 7
v 67 8
v 68 8
v 69 5
v 70 0
v 71 10
v 72 2
v 73 7
v 74 3
